17	4
27	35	25	24	
0	0	0	0	0	3	2	3	4	
5	5	4	5	2	3	6	7	9	
2	7	3	3	10	3	12	13	17	
9	7	1	2	5	3	5	12	16	
3	6	7	4	6	3	17	17	17	
50	9	2	7	2	3	8	10	11	
150	4	9	7	4	3	10	11	17	
125	1	3	5	2	3	14	15	17	
175	5	7	3	1	3	13	15	16	
25	5	1	4	2	3	16	17	17	
50	6	9	2	3	3	17	17	17	
175	4	9	2	1	3	14	15	17	
10	2	8	10	9	3	17	17	17	
7	2	8	8	1	2	17	17	
8	10	3	2	5	3	17	17	17	
1	2	2	10	9	1	17	
0	0	0	0	0	0	
